qe/outputs/qe/cbrdelay_l0_discretize/T=5,eliminate=[I_0,I_1,I_2,I_3,I_4,L_0,L_1,L_2,L_3,L_4,lhs=S_4].smt2
; benchmark generated from python API
(set-info :status unknown)
(declare-fun S_3 () Real)
(declare-fun S_1 () Real)
(declare-fun A_3 () Real)
(declare-fun B () Real)
(declare-fun A_1 () Real)
(declare-fun C () Real)
(declare-fun S_4 () Real)
(declare-fun S_0 () Real)
(declare-fun S_2 () Real)
(declare-fun L0 () Real)
(declare-fun A_0 () Real)
(declare-fun A_4 () Real)
(declare-fun A_2 () Real)
(assert
 (let ((?x249 (* (- 1.0) S_1)))
 (let ((?x510 (* (- 1.0) A_3)))
 (let ((?x555 (* (- 1.0) B)))
 (let ((?x259 (* (- 1.0) C)))
 (let (($x37 (>= L0 0.0)))
 (let (($x457 (>= C 5.0)))
 (let (($x550 (>= B 5.0)))
 (let (($x17612 (<= (+ C A_1 ?x555 (* (- 1.0) A_4) (* (- 1.0) S_3) S_4) 0.0)))
 (let (($x16643 (<= 0.0 (+ C A_1 ?x555 (* (- 1.0) A_2)))))
 (let (($x17418 (<= (+ ?x259 A_2 ?x555 (* (- 1.0) A_4) (* (- 1.0) S_2) S_4) 0.0)))
 (let (($x16984 (not $x16643)))
 (let (($x7589 (<= (+ A_2 (* (- 1.0) A_4) (* (- 1.0) S_3) S_4) 0.0)))
 (let ((?x514 (* (- 1.0) A_2)))
 (let ((?x506 (* (- 1.0) A_4)))
 (let ((?x1183 (* (- 2.0) C)))
 (let ((?x1813 (* (- 2.0) B)))
 (let ((?x911 (* (- 1.0) S_0)))
 (let ((?x1927 (* (- 3.0) C)))
 (let (($x18039 (not (<= 0.0 (+ C ?x555 A_1 (* (- 1.0) A_0))))))
 (let (($x17404 (<= (+ C ?x510 A_2) 0.0)))
 (let (($x17108 (<= (+ (* 2.0 C) S_1 (* (- 1.0) S_4)) 0.0)))
 (let (($x443 (<= (+ ?x259 (* (- 1.0) A_1) A_2) 0.0)))
 (let (($x16360 (not $x443)))
 (let (($x7916 (<= (+ A_3 B (* (- 1.0) A_1) S_1 (* (- 1.0) S_4)) 0.0)))
 (let (($x18587 (<= (+ C A_3 B (* (- 1.0) A_1) S_0 (* (- 1.0) S_4)) 0.0)))
 (let (($x17092 (<= (+ (* 3.0 C) S_0 (* (- 1.0) S_4)) 0.0)))
 (let (($x17133 (<= (+ ?x259 ?x514 B A_3) 0.0)))
 (let (($x986 (not (<= 0.0 (+ A_3 (* (- 1.0) A_0) S_3 (* (- 1.0) S_4))))))
 (let (($x18426 (<= (+ ?x259 (* (- 1.0) A_1) B A_3 S_2 (* (- 1.0) S_4)) 0.0)))
 (let (($x16813 (<= (+ C S_2 (* (- 1.0) S_4)) 0.0)))
 (let (($x16954 (<= (+ ?x1813 ?x259 ?x506 A_3 A_1 ?x514 (* (- 1.0) S_2) S_4) 0.0)))
 (let ((?x525 (* (- 1.0) S_4)))
 (let ((?x518 (* (- 1.0) A_1)))
 (let ((?x1145 (* 2.0 C)))
 (let (($x17477 (<= 0.0 (+ C A_1 ?x555 (* (- 1.0) A_0) S_3 (* (- 1.0) S_2)))))
 (let (($x17114 (<= 0.0 (+ C A_2 ?x510))))
 (let (($x16718 (<= (+ C A_2 B ?x518 S_1 ?x525) 0.0)))
 (let (($x17554 (or (<= (+ ?x1145 S_0 (* (- 1.0) S_3)) 0.0) (<= (+ C A_2 ?x518 B S_0 (* (- 1.0) S_3)) 0.0))))
 (let (($x14963 (or (<= (+ A_2 B ?x518 S_1 (* (- 1.0) S_3)) 0.0) (<= (+ C S_1 (* (- 1.0) S_3)) 0.0))))
 (let (($x111 (>= S_1 S_0)))
 (let (($x114 (>= S_2 S_1)))
 (let (($x117 (>= S_3 S_2)))
 (let (($x120 (>= S_4 S_3)))
 (let (($x122 (>= A_1 A_0)))
 (let (($x123 (>= A_2 A_1)))
 (let (($x124 (>= A_3 A_2)))
 (let (($x125 (>= A_4 A_3)))
 (and $x125 $x124 $x123 $x122 $x120 $x117 $x114 $x111 $x14963 (<= (+ ?x1183 ?x514 A_1 ?x555 ?x249 S_3) 0.0) (<= (+ (* (- 4.0) C) ?x514 A_1 ?x555 ?x911 S_4) 0.0) (<= (+ ?x1183 ?x514 A_1 ?x555 (* (- 1.0) S_2) S_4) 0.0) (<= (+ ?x1927 ?x514 A_1 ?x555 ?x249 S_4) 0.0) (<= (+ ?x555 ?x1183 ?x506 A_3 (* (- 1.0) S_2) S_4) 0.0) (<= (+ ?x1927 ?x911 S_2) 0.0) (or $x443 (<= (+ ?x514 B A_3 S_2 ?x525) 0.0) $x16813) (<= (+ ?x1183 ?x514 A_1 ?x555 ?x911 S_2) 0.0) $x17554 (<= (+ ?x1927 ?x514 A_1 ?x555 ?x911 S_3) 0.0) (<= (+ ?x1927 A_2 ?x555 ?x506 ?x911 S_4) 0.0) (<= (+ ?x1927 A_2 ?x555 ?x510 ?x911 S_3) 0.0) (<= (+ ?x555 ?x259 ?x506 A_3 (* (- 1.0) S_3) S_4) 0.0) (<= (+ ?x259 ?x514 A_1 ?x555 S_3 (* (- 1.0) S_2)) 0.0) (or $x16718 $x17108 $x17114) (<= (+ (* (- 4.0) C) A_2 ?x555 ?x510 ?x911 S_4) 0.0) (or $x443 (not $x17133) (<= (+ C ?x514 B A_3 S_1 ?x525) 0.0)) (<= (+ ?x1183 A_2 ?x555 ?x510 (* (- 1.0) S_2) S_4) 0.0) (<= (+ ?x1927 A_2 ?x555 ?x510 ?x249 S_4) 0.0) (or $x443 (not $x17133) (<= (+ ?x1145 ?x514 B A_3 S_0 ?x525) 0.0)) (<= (+ ?x259 A_2 ?x555 ?x510 S_3 (* (- 1.0) S_2)) 0.0) (<= (+ ?x1183 A_2 ?x555 ?x510 ?x249 S_3) 0.0) (<= (+ ?x259 A_2 ?x555 ?x510 (* (- 1.0) S_3) S_4) 0.0) (<= (+ ?x259 ?x514 A_1 ?x555 ?x249 S_2) 0.0) (<= (+ A_1 ?x555 ?x510 S_3 (* (- 1.0) S_2)) 0.0) (<= (+ ?x259 ?x510 ?x555 A_1 (* (- 1.0) S_2) S_4) 0.0) (<= (+ (* (- 4.0) C) ?x249 S_4) 0.0) (<= (+ ?x1183 A_2 ?x555 ?x506 ?x249 S_4) 0.0) (<= (+ ?x1927 (* (- 1.0) S_2) S_4) 0.0) (or $x986 $x16813 $x17477) (or $x16643 $x17092 (not $x17404)) (<= (+ ?x555 (* (- 4.0) C) ?x506 A_3 ?x911 S_4) 0.0) (<= (+ ?x555 ?x1927 ?x506 A_3 ?x249 S_4) 0.0) (<= (+ ?x1183 A_1 ?x555 ?x510 ?x911 S_3) 0.0) (or (<= (+ ?x514 A_3 S_2 ?x525) 0.0) $x16813) (or $x7916 $x16813 $x16984) (or $x7916 $x16984 (not $x17133)) (or $x16718 $x17108 (not $x17404)) (or $x7916 $x16984 (not $x17114)) (or $x986 $x7916 $x17108 $x17133 $x17404) (or $x16813 $x17133 $x18426 (not $x17477)) (<= (+ ?x259 ?x510 S_4 L0) 0.0) (or $x16984 (<= (+ ?x259 A_2 ?x510 (* (- 1.0) S_3) S_4) 0.0)) (<= (+ ?x1927 ?x510 ?x555 A_1 ?x911 S_4) 0.0) (or $x16813 $x16984 $x18587) (or (<= (+ ?x1145 A_2 ?x518 B S_0 ?x525) 0.0) $x16984 $x18587) (<= (+ ?x1183 ?x510 ?x555 A_1 ?x249 S_4) 0.0) (<= (+ A_1 ?x555 ?x506 (* (- 1.0) S_2) S_4) 0.0) (<= (+ A_2 ?x555 ?x506 (* (- 1.0) S_3) S_4) 0.0) $x16954 (or $x16360 $x16813 $x18039 $x18426) (<= (+ ?x1183 A_1 ?x555 ?x506 ?x911 S_4) 0.0) (<= (+ ?x259 A_1 ?x555 ?x506 ?x249 S_4) 0.0) (or (<= (+ A_1 ?x555 ?x510 (* (- 1.0) S_3) S_4) 0.0) $x16643) (<= (+ ?x506 S_4 L0) 0.0) (or $x986 $x17092 $x17133 $x17404 $x18587) (or $x16360 $x16643 $x17092 $x18039 $x18587) (or $x7916 $x16360 $x17108 $x17404 $x18039) (<= (+ ?x1813 ?x1927 ?x506 A_3 A_1 ?x514 ?x911 S_4) 0.0) (<= (+ ?x1813 ?x1183 ?x506 A_3 A_1 ?x514 ?x249 S_4) 0.0) (or $x7589 $x16984) $x17418 (or $x16643 $x17612) $x550 $x457 $x37 (<= (+ ?x1183 ?x911 S_1) 0.0) (not (>= (+ (* (- 1.0) A_0) S_3 L0) 0.0)) (<= (+ ?x1183 ?x249 S_2) 0.0) (<= (+ ?x1183 (* (- 1.0) S_3) S_4) 0.0) (<= (+ C S_0 (* (- 1.0) S_2)) 0.0) (<= (+ ?x1183 S_3 (* (- 1.0) S_2)) 0.0) (<= (+ ?x1927 ?x249 S_3) 0.0) (<= (+ (* (- 4.0) C) ?x911 S_3) 0.0) (<= (+ (* (- 5.0) C) ?x911 S_4) 0.0) (<= (+ ?x259 A_1 ?x555 ?x510 ?x249 S_3) 0.0))))))))))))))))))))))))))))))))))))))))))))))))))
(check-sat)
